p cnf 15 45
15 -14 12 0
-15 -14 -5 0
15 13 11 0
15 13 -2 0
15 -11 9 0
15 9 -8 0
-15 -5 2 0
-14 -13 -7 0
-14 11 10 0
-14 11 -7 0
14 8 6 0
14 8 -3 0
14 -8 -2 0
-14 5 -1 0
13 -9 4 0
-13 6 -5 0
-13 -2 1 0
12 11 9 0
-12 11 2 0
-12 -10 -3 0
-12 9 8 0
-12 9 -3 0
-12 9 1 0
-12 7 -6 0
12 4 3 0
-12 4 1 0
-11 -7 5 0
-11 7 2 0
-11 -6 4 0
-11 -5 1 0
-11 4 -1 0
-10 -8 2 0
-10 5 3 0
10 -5 2 0
-9 -8 1 0
9 7 6 0
-9 -6 1 0
-9 -5 -4 0
9 5 -4 0
9 5 -3 0
9 4 -1 0
-8 6 3 0
-8 6 -1 0
-7 -6 -5 0
7 6 5 0
